<?xml version = "1.0" standalone="yes"?>
<!-- This file has been generated by DOcplex version 2.23.222  -->
<CPLEXSolution version="1.0">
 <header
   problemName="CVRP"
   objectiveValue="15631.9"
  />
 <variables>
  <variable name="x_0_1" index="0" value="1.00000"/>
  <variable name="x_0_2" index="1" value="1.00000"/>
  <variable name="x_0_3" index="2" value="1.00000"/>
  <variable name="x_0_6" index="5" value="1.00000"/>
  <variable name="x_0_7" index="6" value="1.00000"/>
  <variable name="x_0_8" index="7" value="1.00000"/>
  <variable name="x_0_9" index="8" value="1.00000"/>
  <variable name="x_0_10" index="9" value="1.00000"/>
  <variable name="x_0_12" index="11" value="1.00000"/>
  <variable name="x_0_13" index="12" value="1.00000"/>
  <variable name="x_0_14" index="13" value="1.00000"/>
  <variable name="x_0_16" index="15" value="1.00000"/>
  <variable name="x_0_18" index="17" value="1.00000"/>
  <variable name="x_0_19" index="18" value="1.00000"/>
  <variable name="x_0_20" index="19" value="1.00000"/>
  <variable name="x_0_23" index="22" value="1.00000"/>
  <variable name="x_1_21" index="44" value="1.00000"/>
  <variable name="x_2_17" index="64" value="1.00000"/>
  <variable name="x_3_0" index="72" value="1.00000"/>
  <variable name="x_4_0" index="96" value="1.00000"/>
  <variable name="x_5_0" index="120" value="1.00000"/>
  <variable name="x_6_0" index="144" value="1.00000"/>
  <variable name="x_7_0" index="168" value="1.00000"/>
  <variable name="x_8_22" index="213" value="1.00000"/>
  <variable name="x_9_0" index="216" value="1.00000"/>
  <variable name="x_10_4" index="244" value="1.00000"/>
  <variable name="x_11_0" index="264" value="1.00000"/>
  <variable name="x_12_0" index="288" value="1.00000"/>
  <variable name="x_13_15" index="326" value="1.00000"/>
  <variable name="x_14_24" index="359" value="1.00000"/>
  <variable name="x_15_0" index="360" value="1.00000"/>
  <variable name="x_16_0" index="384" value="1.00000"/>
  <variable name="x_17_0" index="408" value="1.00000"/>
  <variable name="x_18_0" index="432" value="1.00000"/>
  <variable name="x_19_0" index="456" value="1.00000"/>
  <variable name="x_20_0" index="480" value="1.00000"/>
  <variable name="x_21_5" index="509" value="1.00000"/>
  <variable name="x_22_0" index="528" value="1.00000"/>
  <variable name="x_23_0" index="552" value="1.00000"/>
  <variable name="x_24_11" index="587" value="1.00000"/>
  <variable name="u_1" index="600" value="27.00000"/>
  <variable name="u_2" index="601" value="48.00000"/>
  <variable name="u_3" index="602" value="78.00000"/>
  <variable name="u_4" index="603" value="48.00000"/>
  <variable name="u_5" index="604" value="75.00000"/>
  <variable name="u_6" index="605" value="78.00000"/>
  <variable name="u_7" index="606" value="78.00000"/>
  <variable name="u_8" index="607" value="43.00000"/>
  <variable name="u_9" index="608" value="54.00000"/>
  <variable name="u_10" index="609" value="23.00000"/>
  <variable name="u_11" index="610" value="78.00000"/>
  <variable name="u_12" index="611" value="40.00000"/>
  <variable name="u_13" index="612" value="36.00000"/>
  <variable name="u_14" index="613" value="40.00000"/>
  <variable name="u_15" index="614" value="77.00000"/>
  <variable name="u_16" index="615" value="78.00000"/>
  <variable name="u_17" index="616" value="70.00000"/>
  <variable name="u_18" index="617" value="75.00000"/>
  <variable name="u_19" index="618" value="49.00000"/>
  <variable name="u_20" index="619" value="78.00000"/>
  <variable name="u_21" index="620" value="41.00000"/>
  <variable name="u_22" index="621" value="78.00000"/>
  <variable name="u_23" index="622" value="68.00000"/>
  <variable name="u_24" index="623" value="77.00000"/>
 </variables>
</CPLEXSolution>
